proyfinal/src/viki/013/experimentInOfficeAgust.take6.output/337d91da-9e91-4c5d-93ed-d6aa1be28993.als.out
Reading from standard input... Use '--help' for help.
============================[ Problem Statistics ]=============================
|                                                                             |
|  Number of variables:         87638                                         |
|  Number of clauses:          161767                                         |
|  Parse time:                   0.04 s                                       |
|                                                                             |
============================[ Search Statistics ]==============================
| Conflicts |          ORIGINAL         |          LEARNT          | Progress |
|           |    Vars  Clauses Literals |    Limit  Clauses Lit/Cl |          |
===============================================================================
|       100 |   63823   110328   275782 |    40453      100      7 | 27.174 % |
|       250 |   63823   110328   275782 |    44498      250     50 | 27.174 % |
|       475 |   63778   110295   275698 |    48948      470     53 | 27.226 % |
|       812 |   52064   110130   275258 |    53843      792     56 | 40.592 % |
|      1318 |   51848    75974   191116 |    59228     1279     55 | 40.838 % |
|      2077 |   51661    74787   188305 |    65150     2023     60 | 41.052 % |
|      3216 |   50898    72060   181485 |    71666     3113     56 | 41.922 % |
|      4924 |   50362    70050   176510 |    78832     4414     53 | 42.534 % |
|      7486 |   50038    68776   173485 |    86715     6963     54 | 42.904 % |
|     11330 |   49780    67701   170819 |    95387    10304     55 | 43.198 % |
===============================================================================
restarts              : 63
conflicts             : 16925          (7697 /sec)
decisions             : 57687          (0.00 % random) (26234 /sec)
propagations          : 23999767       (10914115 /sec)
conflict literals     : 851439         (44.14 % deleted)
Memory used           : 35.24 MB
CPU time              : 2.19897 s

UNSATISFIABLE
